Version identifier: 12.10.0.0 | 2019-11-26 | 843d4de
CPXPARAM_WorkMem                                 28672
Tried aggregator 2 times.
MIP Presolve modified 180 coefficients.
Aggregator did 20 substitutions.
Reduced MIP has 115 rows, 150 columns, and 545 nonzeros.
Reduced MIP has 150 binaries, 0 generals, 0 SOSs, and 0 indicators.
Presolve time = 0,00 sec. (0,78 ticks)
Found incumbent of value 461,000000 after 0,01 sec. (2,71 ticks)
Probing time = 0,00 sec. (0,21 ticks)
Tried aggregator 1 time.
Detecting symmetries...
MIP Presolve eliminated 15 rows and 0 columns.
MIP Presolve added 30 rows and 0 columns.
Reduced MIP has 130 rows, 150 columns, and 560 nonzeros.
Reduced MIP has 150 binaries, 0 generals, 0 SOSs, and 0 indicators.
Presolve time = 0,00 sec. (0,69 ticks)
Probing time = 0,00 sec. (0,21 ticks)
Clique table members: 320.
MIP emphasis: balance optimality and feasibility.
MIP search method: dynamic search.
Parallel mode: deterministic, using up to 16 threads.
Root relaxation solution time = 0,00 sec. (1,06 ticks)

        Nodes                                         Cuts/
   Node  Left     Objective  IInf  Best Integer    Best Bound    ItCnt     Gap

*     0+    0                          461,0000        0,0000           100,00%
*     0+    0                          262,0000        0,0000           100,00%
*     0+    0                          258,0000        0,0000           100,00%
      0     0      157,0000    51      258,0000      157,0000      121   39,15%
      0     0      157,7634    51      258,0000     Cuts: 114      228   38,85%
      0     0      178,1487    51      258,0000     Cuts: 128      329   30,95%
      0     0      181,9720    51      258,0000      Cuts: 66      380   29,47%
      0     0      187,0000    51      258,0000      Cuts: 42      458   27,52%
      0     0      187,0000    51      258,0000      Cuts: 57      560   27,52%

Repeating presolve.
Tried aggregator 2 times.
MIP Presolve eliminated 94 rows and 66 columns.
MIP Presolve added 34 rows and 0 columns.
MIP Presolve modified 93 coefficients.
Aggregator did 13 substitutions.
Reduced MIP has 57 rows, 54 columns, and 162 nonzeros.
Reduced MIP has 54 binaries, 0 generals, 0 SOSs, and 0 indicators.
Presolve time = 0,00 sec. (0,46 ticks)
Probing time = 0,00 sec. (0,04 ticks)
Tried aggregator 1 time.
MIP Presolve eliminated 1 rows and 0 columns.
Reduced MIP has 56 rows, 53 columns, and 159 nonzeros.
Reduced MIP has 53 binaries, 0 generals, 0 SOSs, and 0 indicators.
Presolve time = 0,00 sec. (0,10 ticks)
Probing time = 0,00 sec. (0,04 ticks)
Tried aggregator 1 time.
Detecting symmetries...
Reduced MIP has 56 rows, 53 columns, and 159 nonzeros.
Reduced MIP has 53 binaries, 0 generals, 0 SOSs, and 0 indicators.
Presolve time = 0,00 sec. (0,12 ticks)
Represolve time = 0,00 sec. (1,73 ticks)
Probing time = 0,00 sec. (0,04 ticks)
Clique table members: 84.
MIP emphasis: balance optimality and feasibility.
MIP search method: dynamic search.
Parallel mode: deterministic, using up to 16 threads.
Root relaxation solution time = 0,00 sec. (0,33 ticks)

        Nodes                                         Cuts/
   Node  Left     Objective  IInf  Best Integer    Best Bound    ItCnt     Gap

*     0+    0                          258,0000      187,0000            27,52%
      0     0      247,3333    19      258,0000      247,3333      684    4,13%
      0     0        cutoff            258,0000                    693    0,00%
Elapsed time = 0,09 sec. (30,78 ticks, tree = 0,01 MB, solutions = 3)

GUB cover cuts applied:  4
Clique cuts applied:  7
Cover cuts applied:  8
Implied bound cuts applied:  1
Mixed integer rounding cuts applied:  1
Zero-half cuts applied:  10
Lift and project cuts applied:  1
Gomory fractional cuts applied:  4

Root node processing (before b&c):
  Real time             =    0,09 sec. (30,78 ticks)
Parallel b&c, 16 threads:
  Real time             =    0,00 sec. (0,00 ticks)
  Sync time (average)   =    0,00 sec.
  Wait time (average)   =    0,00 sec.
                          ------------
Total (root+branch&cut) =    0,09 sec. (30,78 ticks)
